# Solution for model r5_t9_m0_9 Batch Number: 1
# Finished Task: 9 / 9
# Makespan: 504.0, Total Distance: 195.0, Total Time: 1.3305
# R O S F Batch
0 0 12 0.0 0.0 -1
1 1 9 0.0 0.0 -1
2 2 10 0.0 0.0 -1
3 3 6 0.0 0.0 -1
4 4 5 0.0 0.0 -1
5 4 -1 384.0 415.0 0
6 3 11 339.0 378.0 0
7 1 -1 456.0 483.0 0
8 1 7 409.0 444.0 0
9 1 13 310.0 330.0 0
10 2 -1 483.0 504.0 0
11 3 -1 394.0 431.0 0
12 0 -1 275.0 310.0 0
13 1 8 378.0 409.0 0
